NAME : tsp20_24.149.tour
COMMENT : Length = 149
COMMENT : Found by LKH [Keld Helsgaun]
TYPE : TOUR
DIMENSION : 20
TOUR_SECTION
1
2
9
5
15
14
17
20
6
10
18
12
3
8
4
19
16
11
13
7
-1
EOF
